c Sudoku solution
p cnf 729 0
121 0
155 0
213 0
226 0
232 0
251 0
295 0
327 0
342 0
366 0
374 0
465 0
487 0
535 0
315 0
559 0
576 0
619 0
717 0
637 0
761 0
798 0
843 0
857 0
864 0
244 0
879 0
499 0
916 0
436 0
931 0
838 0
812 0
825 0
733 0
134 0
118 0
339 0
671 0
685 0
441 0
414 0
511 0
654 0
646 0
756 0
775 0
782 0
724 0
929 0
749 0
945 0
548 0
567 0
478 0
628 0
147 0
277 0
172 0
973 0
984 0
997 0
583 0
692 0
594 0
522 0
423 0
452 0
663 0
958 0
962 0
353 0
169 0
268 0
289 0
388 0
391 0
881 0
896 0
186 0
193 0
